p cnf 12 22
-3 -11 7 0
-5 -9 0
5 3 0
-1 12 -11 -10 -5 2 8 4 7 0
12 4 -11 0
5 1 9 0
12 3 -9 -10 0
12 -8 0
5 11 2 0
-2 -5 -8 3 11 -10 -6 0
10 -2 4 0
-11 -7 -5 -1 2 -3 -9 -8 0
10 -2 -8 -3 -12 11 -6 -7 -5 0
-2 -5 6 9 -7 4 -10 11 12 -8 0
-7 12 11 0
11 8 10 7 0
11 -4 -12 0
10 6 0
-11 10 -2 -8 -6 0
-3 -10 -7 0
-1 12 9 7 0
7 12 3 4 1 10 -11 5 8 9 0
